db/data/47052181012230029737327960557126364.z3.out
sat
-------------------
1698.398499555
